Problem:    ex2
Rows:       4
Columns:    4
Non-zeros:  15
Status:     OPTIMAL
Objective:  z = 1 (MINimum)

   No.   Row name   St   Activity     Lower bound   Upper bound    Marginal
------ ------------ -- ------------- ------------- ------------- -------------
     1 z            B              1                             
     2 r1           NL             2             2                         1.5 
     3 r2           B              3                           8 
     4 r3           NS             4             4             =          -0.5 

   No. Column name  St   Activity     Lower bound   Upper bound    Marginal
------ ------------ -- ------------- ------------- ------------- -------------
     1 x[4]         NL             0             0                         4.5 
     2 x[3]         B              1             0               
     3 x[2]         NL             0             0                           3 
     4 x[1]         B              3             0               

Karush-Kuhn-Tucker optimality conditions:

KKT.PE: max.abs.err = 0.00e+00 on row 0
        max.rel.err = 0.00e+00 on row 0
        High quality

KKT.PB: max.abs.err = 0.00e+00 on row 0
        max.rel.err = 0.00e+00 on row 0
        High quality

KKT.DE: max.abs.err = 0.00e+00 on column 0
        max.rel.err = 0.00e+00 on column 0
        High quality

KKT.DB: max.abs.err = 0.00e+00 on row 0
        max.rel.err = 0.00e+00 on row 0
        High quality

End of output
